12949 14490 14261
10291 14965 12661
12086 14765 13883
13098 14567 13883
14167 12472 14346
12949 12117 14994
15109 11599 12678
14886 13193 13421
14267 12190 14258
12565 13529 14973
14142 12186 14375
13498 14254 14121
11870 14617 14134
15132 11113 12441
11730 14888 12769
11955 13284 15119
11737 14400 14432
14435 12675 14038
13789 13892 14224
15156 10526 11983
13605 13176 14563
14219 12527 14289
12488 13188 15059
14130 13823 13999
12956 12885 14988
14005 14040 13973
13483 11542 14732
14721 13563 12827
14344 12531 14172
12605 14723 13319
14135 11418 14381
14822 11941 13669
14745 11600 13755
14481 13935 12961
11724 11334 15196
13072 13315 14825
14861 12030 13592
15070 12003 13211
13605 14353 13735
14214 14013 13592
14847 13104 13498
13489 12746 14726
